p cnf 15 22
15 13 6 0
15 11 8 0
-15 7 -4 0
15 -6 4 0
-14 -13 -3 0
-14 12 11 0
14 11 8 0
14 -9 8 0
-14 8 -2 0
-13 -11 -2 0
-13 11 2 0
-12 6 -1 0
12 -6 1 0
-11 -9 3 0
-11 6 4 0
-10 -9 6 0
9 -8 -1 0
8 -6 4 0
-7 6 -3 0
7 4 3 0
-5 3 -2 0
-3 2 1 0
